N = 25;
MinK = 3;
Capacity = 1000;

Scale = 10;
DistanceRoundingMode = Floor;
X = array1d(0..N, [40, 25, 22, 22, 20, 20, 18, 15, 15, 10, 10, 8, 8, 5, 5, 2, 0, 0, 44, 42, 42, 40, 40, 38, 38, 35]);
Y = array1d(0..N, [50, 85, 75, 85, 80, 85, 75, 75, 80, 35, 40, 40, 45, 35, 45, 40, 40, 45, 5, 10, 15, 5, 15, 5, 15, 5]);

Demands = array1d(1..N, [20, 30, 10, 40, 20, 20, 20, 10, 20, 30, 40, 20, 10, 10, 20, 20, 20, 20, 40, 10, 10, 40, 30, 10, 20]);

ServiceTimes = array1d(1..N, [10, 10, 10, 10, 10, 10, 10, 10, 10, 10, 10, 10, 10, 10, 10, 10, 10, 10, 10, 10, 10, 10, 10, 10, 10]);

TimeWindows = array2d(1..2, 0..N, [|
    0, 591,  73, 473, 418,  40, 249, 281, 272, 236, 470,  33, 166, 359,  35,  39, 214, 359, 338, 205, 511, 158, 263,  45, 598, 348 |
  960, 874, 350, 588, 913, 390, 646, 438, 581, 625, 687, 510, 399, 911, 457, 538, 415, 909, 451, 422, 682, 391, 606, 522, 883, 904
|]);
